CPXPARAM_TimeLimit                               3600
CPXPARAM_Read_DataCheck                          1
Parallel mode: deterministic, using up to 8 threads for concurrent optimization.
Tried aggregator 1 time.
No LP presolve or aggregator reductions.
Presolve time = 0.00 sec. (2.35 ticks)

Iteration log . . .
Iteration:     1   Dual objective     =           900.000000
Perturbation started.
Iteration:   101   Dual objective     =           900.000000
Iteration:   222   Dual objective     =           900.019830
Iteration:   430   Dual objective     =           900.026129
Iteration:   653   Dual objective     =           900.026134
Iteration:   876   Dual objective     =           900.026137
Iteration:  1100   Dual objective     =           900.026139
Iteration:  1324   Dual objective     =           900.026141
Iteration:  1554   Dual objective     =           900.026142
Iteration:  1788   Dual objective     =           900.026143
Removing perturbation.

Dual simplex solved model.

